TCS_Benchmarks/redos_fix/regexlib2_output_distinct_3109_3108_16_0.smt2
(set-logic QF_S)
(declare-const x String)
(assert (str.in.re x (re.inter  (re.++ (re.+  (re.++  (re.++  (re.union  (str.to.re "\u{77}")  (str.to.re "\u{57}")) (re.++  (re.union  (str.to.re "\u{77}")  (str.to.re "\u{57}"))  (re.union  (str.to.re "\u{77}")  (str.to.re "\u{57}"))))  (str.to.re "\u{2e}")) )  (re.union  (re.++  (re.union (re.range "\u{41}" "\u{5a}") (re.range "\u{61}" "\u{7a}"))  (re.union (re.range "\u{41}" "\u{5a}") (re.range "\u{61}" "\u{7a}")))  (re.++  (re.union (re.range "\u{41}" "\u{5a}") (re.range "\u{61}" "\u{7a}"))   (re.++  (re.union (re.range "\u{41}" "\u{5a}") (re.range "\u{61}" "\u{7a}"))  (re.union (re.range "\u{41}" "\u{5a}") (re.range "\u{61}" "\u{7a}"))))))  (re.++ (re.+  (re.++  (re.++  (re.union  (str.to.re "\u{77}")  (str.to.re "\u{57}")) (re.++  (re.union  (str.to.re "\u{77}")  (str.to.re "\u{57}"))  (re.union  (str.to.re "\u{77}")  (str.to.re "\u{57}"))))  (str.to.re "\u{2e}")) ) (re.++  (re.++ (re.+  (re.union (re.range "\u{30}" "\u{39}") (re.union (re.range "\u{41}" "\u{5a}") (re.range "\u{61}" "\u{7a}"))) )  (str.to.re "\u{2e}"))  (re.union  (re.++  (re.union (re.range "\u{41}" "\u{5a}") (re.range "\u{61}" "\u{7a}"))  (re.union (re.range "\u{41}" "\u{5a}") (re.range "\u{61}" "\u{7a}")))  (re.++  (re.union (re.range "\u{41}" "\u{5a}") (re.range "\u{61}" "\u{7a}"))   (re.++  (re.union (re.range "\u{41}" "\u{5a}") (re.range "\u{61}" "\u{7a}"))  (re.union (re.range "\u{41}" "\u{5a}") (re.range "\u{61}" "\u{7a}"))))))) )))
(check-sat)
(get-model)