TCS_Benchmarks/redos_fix/regexlib2_output_distinct_3109_3108_16_0.txt
(([wW]{3}\.)+)([A-Za-z]{2,3})
(([wW]{3}\.)+)([0-9A-Za-z]+\.)([A-Za-z]{2,3})